
  32    4
  10   10   10   10

   0   0   0   0   0   5 2 3 4 10 17 
   7   1   0   1   1   4 21 12 9 5 
   3   0   1   4  10   3 21 12 5 
   3   6   4   7   0   4 31 15 7 6 
   5   5   0   3   4   6 30 29 16 15 8 6 
  10   3   3   0   6   4 28 18 14 11 
   7   2   0   5   4   4 27 16 13 12 
   7   6   7   0   6   6 25 24 20 19 18 14 
   1   4   4   0   2   4 29 26 15 13 
   9   5   4   0   3   4 27 26 15 11 
   7   7   2   4   0   4 25 24 23 19 
   7   8   0   3   5   3 24 22 20 
   3   4   4   3   0   3 25 24 19 
   9   3   0   2   6   3 27 26 22 
   1   5   5   6   0   2 23 18 
   4   0   4   4   5   1 18 
   7   6   0   4   3   1 20 
   8   0   5   5   3   1 22 
   7   3   6   4   0   1 22 
   6   4   0   4   3   1 23 
   1   4   2   0   2   1 23 
   8   1   2   0   5   1 32
   2   3   0   2   1   1 32
   6   0   5   5   5   1 32
   6   4   0   2   5   1 32
   2   2   7   0   4   1 32
   5   3   3   6   0   1 32
   5   5   0   2   3   1 32
   8   5   0   5   3   1 32
   5   2   0   7   3   1 32
   5   3   4   0   4   1 32
   0   0   0   0   0   0 
